Geographic Exponential Decay
20 156 155 41 220 127 130 277 84 65 144 255 148 89 104 119 102 47 254 214 25
p edge 320 615
e 0 32 1.0
e 1 184 1.0
e 1 36 8.0
e 2 305 3.0
e 2 288 10.0
e 3 136 4.0
e 4 286 8.0
e 5 121 1.0
e 6 124 2.0
e 6 312 4.0
e 7 288 4.0
e 8 150 20.0
e 9 2 17.0
e 9 52 9.0
e 9 200 6.0
e 9 48 22.0
e 9 160 22.0
e 10 76 1.0
e 11 134 4.0
e 12 60 13.0
e 12 208 19.0
e 12 30 20.0
e 12 61 22.0
e 12 146 16.0
e 13 297 1.0
e 14 12 1.0
e 15 0 2.0
e 16 222 7.0
e 17 98 3.0
e 17 16 7.0
e 17 195 3.0
e 18 103 1.0
e 18 219 3.0
e 19 273 1.0
e 20 254 27.0
e 21 309 1.0
e 22 315 22.0
e 22 155 91.0
e 22 82 1.0
e 22 15 11.0
e 22 247 7.0
e 23 190 1.0
e 23 246 3.0
e 24 202 3.0
e 25 247 90.0
e 25 67 98.0
e 25 318 34.0
e 25 219 58.0
e 25 187 13.0
e 25 233 70.0
e 25 175 73.0
e 25 164 9.0
e 25 141 63.0
e 25 273 8.0
e 25 304 73.0
e 25 18 55.0
e 25 274 22.0
e 25 186 90.0
e 25 147 1.0
e 25 23 12.0
e 25 257 11.0
e 26 43 3.0
e 26 230 4.0
e 27 139 2.0
e 27 148 94.0
e 27 303 1.0
e 28 62 19.0
e 29 150 16.0
e 30 23 1.0
e 30 78 11.0
e 31 219 10.0
e 31 310 5.0
e 31 67 3.0
e 32 282 2.0
e 32 50 16.0
e 32 127 88.0
e 32 231 7.0
e 32 186 3.0
e 32 202 15.0
e 32 153 31.0
e 32 175 50.0
e 33 93 5.0
e 34 18 5.0
e 35 123 17.0
e 36 32 22.0
e 36 54 9.0
e 37 154 4.0
e 38 299 1.0
e 39 243 1.0
e 40 2 6.0
e 41 295 79.0
e 41 179 97.0
e 41 105 97.0
e 41 131 42.0
e 41 6 63.0
e 41 137 2.0
e 41 255 74.0
e 41 192 48.0
e 41 168 22.0
e 41 307 24.0
e 41 92 33.0
e 41 96 42.0
e 41 218 82.0
e 41 58 61.0
e 41 23 58.0
e 41 296 48.0
e 41 103 46.0
e 42 72 11.0
e 42 252 5.0
e 44 77 4.0
e 45 79 2.0
e 46 315 2.0
e 47 285 11.0
e 47 231 38.0
e 47 105 38.0
e 47 29 7.0
e 47 189 98.0
e 47 75 94.0
e 47 76 25.0
e 47 263 74.0
e 47 288 15.0
e 47 6 3.0
e 47 290 74.0
e 47 141 20.0
e 47 35 24.0
e 47 256 56.0
e 47 261 17.0
e 47 77 34.0
e 47 226 27.0
e 49 162 8.0
e 51 151 1.0
e 52 34 1.0
e 53 187 4.0
e 55 188 3.0
e 55 172 3.0
e 56 315 2.0
e 57 196 3.0
e 57 97 2.0
e 58 311 22.0
e 58 71 20.0
e 58 61 24.0
e 58 315 5.0
e 59 245 5.0
e 61 69 24.0
e 61 189 14.0
e 61 14 5.0
e 62 295 3.0
e 62 272 14.0
e 62 222 20.0
e 62 204 3.0
e 63 2 12.0
e 63 245 9.0
e 63 73 4.0
e 64 220 48.0
e 64 5 2.0
e 65 209 33.0
e 65 287 64.0
e 65 6 92.0
e 65 235 31.0
e 65 253 96.0
e 65 172 27.0
e 65 152 6.0
e 65 203 58.0
e 65 55 76.0
e 65 170 36.0
e 65 306 71.0
e 65 222 53.0
e 65 260 1.0
e 65 1 86.0
e 65 228 30.0
e 65 71 93.0
e 65 94 21.0
e 66 207 2.0
e 68 292 5.0
e 68 87 37.0
e 69 120 1.0
e 70 115 1.0
e 72 138 7.0
e 72 234 6.0
e 74 159 1.0
e 75 289 49.0
e 75 132 20.0
e 75 247 41.0
e 75 167 38.0
e 75 32 11.0
e 75 147 41.0
e 75 163 25.0
e 75 98 4.0
e 80 241 18.0
e 80 27 12.0
e 80 30 7.0
e 80 299 2.0
e 80 154 13.0
e 81 74 1.0
e 82 8 2.0
e 83 20 2.0
e 84 94 73.0
e 84 153 81.0
e 84 99 12.0
e 84 61 89.0
e 84 36 6.0
e 84 43 9.0
e 84 129 6.0
e 84 25 74.0
e 84 199 36.0
e 84 264 92.0
e 84 242 60.0
e 84 155 84.0
e 84 318 58.0
e 84 126 5.0
e 84 34 12.0
e 84 298 12.0
e 84 42 89.0
e 85 24 1.0
e 85 93 1.0
e 86 84 49.0
e 86 254 75.0
e 86 51 12.0
e 87 43 35.0
e 87 247 6.0
e 87 30 33.0
e 87 7 28.0
e 87 101 27.0
e 87 57 27.0
e 87 228 48.0
e 87 249 11.0
e 88 239 2.0
e 89 244 41.0
e 89 195 71.0
e 89 218 62.0
e 89 169 9.0
e 89 27 15.0
e 89 97 27.0
e 89 185 38.0
e 89 161 37.0
e 89 245 89.0
e 89 179 76.0
e 89 304 84.0
e 89 54 85.0
e 89 247 6.0
e 89 214 11.0
e 89 28 66.0
e 89 15 15.0
e 89 232 60.0
e 90 164 3.0
e 90 58 1.0
e 91 298 1.0
e 95 96 1.0
e 95 261 3.0
e 100 108 2.0
e 101 318 19.0
e 101 218 5.0
e 101 9 19.0
e 101 248 17.0
e 102 187 62.0
e 102 265 43.0
e 102 131 65.0
e 102 45 55.0
e 102 234 85.0
e 102 235 74.0
e 102 62 90.0
e 102 181 51.0
e 102 65 51.0
e 102 5 21.0
e 102 90 10.0
e 102 3 76.0
e 102 162 59.0
e 102 205 3.0
e 102 64 61.0
e 102 301 55.0
e 102 189 4.0
e 104 221 17.0
e 104 293 71.0
e 104 291 85.0
e 104 133 90.0
e 104 142 53.0
e 104 247 11.0
e 104 286 83.0
e 104 98 83.0
e 104 35 6.0
e 104 318 20.0
e 104 81 5.0
e 104 12 76.0
e 104 43 46.0
e 104 306 24.0
e 104 119 51.0
e 104 271 79.0
e 104 120 65.0
e 105 21 6.0
e 106 282 1.0
e 107 303 18.0
e 107 130 64.0
e 107 167 11.0
e 107 47 60.0
e 107 316 22.0
e 109 284 7.0
e 109 314 6.0
e 109 79 10.0
e 110 76 1.0
e 111 44 1.0
e 112 153 9.0
e 112 276 11.0
e 112 24 6.0
e 113 16 1.0
e 113 295 15.0
e 114 55 1.0
e 115 55 7.0
e 115 122 6.0
e 116 105 7.0
e 116 12 22.0
e 117 141 1.0
e 118 226 3.0
e 119 14 16.0
e 119 252 39.0
e 119 179 76.0
e 119 246 39.0
e 119 143 30.0
e 119 83 2.0
e 119 238 4.0
e 119 265 66.0
e 119 210 36.0
e 119 248 53.0
e 119 121 33.0
e 119 187 69.0
e 119 217 88.0
e 119 48 84.0
e 119 89 77.0
e 119 90 49.0
e 123 268 1.0
e 123 21 7.0
e 123 64 1.0
e 123 108 9.0
e 125 294 3.0
e 127 143 2.0
e 127 288 74.0
e 127 237 65.0
e 127 61 83.0
e 127 19 43.0
e 127 310 77.0
e 127 259 80.0
e 127 284 57.0
e 127 260 96.0
e 127 243 84.0
e 127 109 67.0
e 127 171 82.0
e 127 149 59.0
e 127 106 11.0
e 127 146 33.0
e 127 223 66.0
e 128 163 2.0
e 129 169 2.0
e 129 208 1.0
e 130 155 62.0
e 130 57 59.0
e 130 44 9.0
e 130 98 43.0
e 130 185 38.0
e 130 296 57.0
e 130 268 65.0
e 130 17 88.0
e 130 18 73.0
e 130 159 12.0
e 130 303 39.0
e 130 112 76.0
e 130 78 24.0
e 130 102 94.0
e 130 168 64.0
e 130 100 62.0
e 132 156 44.0
e 133 233 1.0
e 134 151 5.0
e 135 70 1.0
e 136 74 4.0
e 137 20 2.0
e 138 201 4.0
e 138 260 9.0
e 138 135 19.0
e 138 203 16.0
e 139 249 4.0
e 140 150 22.0
e 143 298 1.0
e 144 308 20.0
e 144 89 64.0
e 144 11 82.0
e 144 254 4.0
e 144 185 95.0
e 144 96 39.0
e 144 200 45.0
e 144 313 47.0
e 144 147 72.0
e 144 71 48.0
e 144 267 72.0
e 144 316 39.0
e 144 133 17.0
e 144 108 7.0
e 144 17 7.0
e 144 135 66.0
e 144 277 33.0
e 145 197 1.0
e 145 0 1.0
e 148 239 32.0
e 148 269 1.0
e 148 305 41.0
e 148 104 56.0
e 148 242 29.0
e 148 19 17.0
e 148 154 24.0
e 148 316 41.0
e 148 281 5.0
e 148 181 44.0
e 148 141 25.0
e 148 225 40.0
e 148 300 45.0
e 148 142 60.0
e 148 163 61.0
e 148 134 5.0
e 150 120 24.0
e 150 157 22.0
e 152 179 10.0
e 152 97 9.0
e 155 147 20.0
e 155 39 42.0
e 155 196 82.0
e 155 182 37.0
e 155 142 75.0
e 155 258 66.0
e 155 112 97.0
e 155 119 46.0
e 155 237 67.0
e 155 115 52.0
e 155 19 53.0
e 155 24 1.0
e 155 251 2.0
e 155 153 58.0
e 156 91 14.0
e 156 65 35.0
e 156 108 53.0
e 156 138 34.0
e 156 228 56.0
e 156 306 78.0
e 156 60 63.0
e 156 61 87.0
e 156 216 13.0
e 156 150 99.0
e 156 52 29.0
e 156 269 29.0
e 156 210 62.0
e 156 281 20.0
e 156 48 73.0
e 156 74 77.0
e 158 60 4.0
e 158 97 6.0
e 161 245 4.0
e 162 75 33.0
e 165 267 12.0
e 166 303 5.0
e 166 156 70.0
e 166 313 20.0
e 170 255 54.0
e 171 208 8.0
e 171 262 6.0
e 173 100 2.0
e 173 172 2.0
e 174 170 1.0
e 176 136 9.0
e 176 261 1.0
e 176 130 15.0
e 177 62 22.0
e 178 85 4.0
e 180 281 1.0
e 182 137 3.0
e 183 142 2.0
e 191 107 24.0
e 193 94 3.0
e 193 7 2.0
e 194 13 3.0
e 194 258 1.0
e 195 305 10.0
e 198 285 1.0
e 199 276 6.0
e 200 299 23.0
e 200 306 23.0
e 200 173 18.0
e 204 248 21.0
e 204 252 6.0
e 206 75 40.0
e 206 241 12.0
e 206 307 4.0
e 211 102 47.0
e 211 217 5.0
e 212 174 5.0
e 212 107 19.0
e 213 32 29.0
e 213 95 8.0
e 213 131 1.0
e 214 44 30.0
e 214 98 61.0
e 214 240 60.0
e 214 109 51.0
e 214 177 26.0
e 214 69 45.0
e 214 50 28.0
e 214 70 89.0
e 214 251 29.0
e 214 151 6.0
e 214 117 67.0
e 214 277 2.0
e 214 35 10.0
e 214 221 97.0
e 214 93 70.0
e 214 222 11.0
e 215 194 2.0
e 217 171 9.0
e 217 172 14.0
e 217 104 81.0
e 220 54 14.0
e 220 268 83.0
e 220 135 19.0
e 220 167 50.0
e 220 185 68.0
e 220 246 65.0
e 220 104 28.0
e 220 148 54.0
e 220 125 91.0
e 220 228 91.0
e 220 267 77.0
e 220 288 13.0
e 220 45 56.0
e 220 314 3.0
e 220 311 87.0
e 220 272 54.0
e 223 42 4.0
e 224 231 1.0
e 227 300 1.0
e 229 281 1.0
e 229 230 1.0
e 232 218 1.0
e 236 26 4.0
e 236 70 1.0
e 242 50 3.0
e 244 34 3.0
e 248 57 16.0
e 248 100 18.0
e 250 137 15.0
e 250 286 12.0
e 250 130 56.0
e 250 83 18.0
e 250 318 11.0
e 254 92 96.0
e 254 308 57.0
e 254 36 49.0
e 254 206 4.0
e 254 298 4.0
e 254 131 73.0
e 254 292 96.0
e 254 7 77.0
e 254 127 74.0
e 254 244 66.0
e 254 236 74.0
e 254 37 69.0
e 254 8 54.0
e 254 75 40.0
e 255 235 84.0
e 255 283 81.0
e 255 224 52.0
e 255 174 86.0
e 255 161 39.0
e 255 117 78.0
e 255 180 65.0
e 255 278 34.0
e 255 30 72.0
e 255 58 100.0
e 255 215 36.0
e 255 230 27.0
e 255 65 5.0
e 255 29 61.0
e 255 259 67.0
e 266 20 1.0
e 267 296 11.0
e 267 131 10.0
e 268 235 9.0
e 268 99 15.0
e 270 103 4.0
e 271 284 4.0
e 274 16 1.0
e 275 264 3.0
e 277 13 68.0
e 277 134 8.0
e 277 8 92.0
e 277 118 26.0
e 277 128 66.0
e 277 317 26.0
e 277 212 78.0
e 277 215 75.0
e 277 181 80.0
e 277 225 47.0
e 277 31 84.0
e 277 201 3.0
e 277 174 24.0
e 277 179 80.0
e 277 293 71.0
e 279 283 1.0
e 280 249 1.0
e 290 242 3.0
e 295 149 22.0
e 295 155 85.0
e 302 173 5.0
e 311 42 10.0
e 312 25 92.0
e 313 280 10.0
e 313 229 14.0
e 313 66 22.0
e 319 208 8.0
e 319 62 24.0
e 319 38 10.0
